k = 80;
b = 40;
AtomicConstraints =  [|
1, 8|
	1, 9|
	1, 10|
	1, 11|
	1, 12|
	1, 13|
	1, 14|
	1, 15|
	1, 16|
	1, 17|
	1, 50|
	1, 51|
	1, 20|
	1, 21|
	2, 1|
	2, 8|
	2, 9|
	2, 10|
	2, 11|
	2, 12|
	2, 13|
	2, 14|
	2, 15|
	2, 16|
	2, 17|
	2, 50|
	2, 51|
	2, 20|
	2, 21|
	3, 1|
	3, 2|
	3, 8|
	3, 9|
	3, 10|
	3, 11|
	3, 12|
	3, 13|
	3, 14|
	3, 15|
	3, 16|
	3, 17|
	3, 50|
	3, 51|
	3, 20|
	3, 21|
	4, 1|
	4, 2|
	4, 3|
	4, 8|
	4, 9|
	4, 10|
	4, 11|
	4, 12|
	4, 13|
	4, 14|
	4, 15|
	4, 16|
	4, 17|
	4, 50|
	4, 51|
	4, 20|
	4, 21|
	5, 1|
	5, 2|
	5, 3|
	5, 4|
	5, 8|
	5, 9|
	5, 10|
	5, 11|
	5, 12|
	5, 13|
	5, 14|
	5, 15|
	5, 16|
	5, 17|
	5, 50|
	5, 51|
	5, 20|
	5, 21|
	6, 1|
	6, 2|
	6, 3|
	6, 4|
	6, 5|
	6, 8|
	6, 9|
	6, 10|
	6, 11|
	6, 12|
	6, 13|
	6, 14|
	6, 15|
	6, 16|
	6, 17|
	6, 50|
	6, 51|
	6, 20|
	6, 21|
	6, 66|
	7, 1|
	7, 2|
	7, 3|
	7, 4|
	7, 5|
	7, 6|
	7, 8|
	7, 9|
	7, 10|
	7, 11|
	7, 12|
	7, 13|
	7, 14|
	7, 15|
	7, 16|
	7, 17|
	7, 18|
	7, 50|
	7, 51|
	7, 20|
	7, 21|
	7, 38|
	7, 74|
	7, 66|
	7, 39|
	10, 8|
	11, 8|
	11, 9|
	11, 10|
	12, 8|
	12, 9|
	12, 10|
	12, 11|
	12, 17|
	13, 8|
	13, 9|
	13, 10|
	13, 11|
	13, 12|
	13, 17|
	13, 50|
	14, 8|
	14, 9|
	14, 10|
	14, 11|
	14, 12|
	14, 13|
	14, 17|
	14, 50|
	14, 51|
	15, 8|
	15, 9|
	15, 10|
	15, 11|
	15, 12|
	15, 13|
	15, 14|
	15, 17|
	15, 50|
	15, 51|
	16, 8|
	16, 9|
	16, 10|
	16, 11|
	16, 12|
	16, 13|
	16, 14|
	16, 15|
	16, 17|
	16, 50|
	16, 51|
	16, 20|
	9, 8|
	18, 1|
	18, 2|
	18, 3|
	18, 4|
	18, 5|
	18, 8|
	18, 9|
	18, 10|
	18, 11|
	18, 12|
	18, 13|
	18, 14|
	18, 15|
	18, 16|
	18, 17|
	18, 50|
	18, 51|
	18, 20|
	18, 21|
	19, 1|
	19, 2|
	19, 3|
	19, 4|
	19, 5|
	19, 6|
	19, 8|
	19, 9|
	19, 10|
	19, 11|
	19, 12|
	19, 13|
	19, 14|
	19, 15|
	19, 16|
	19, 17|
	19, 18|
	19, 50|
	19, 51|
	19, 20|
	19, 21|
	19, 66|
	19, 39|
	17, 8|
	17, 9|
	17, 10|
	50, 8|
	50, 9|
	50, 10|
	50, 11|
	50, 17|
	51, 8|
	51, 9|
	51, 10|
	51, 11|
	51, 12|
	51, 17|
	51, 50|
	20, 8|
	20, 9|
	20, 10|
	20, 11|
	20, 12|
	20, 13|
	20, 14|
	20, 17|
	20, 50|
	20, 51|
	21, 8|
	21, 9|
	21, 10|
	21, 11|
	21, 12|
	21, 13|
	21, 14|
	21, 15|
	21, 17|
	21, 50|
	21, 51|
	21, 20|
	23, 24|
	23, 27|
	23, 64|
	23, 78|
	23, 60|
	23, 61|
	24, 78|
	24, 60|
	24, 61|
	22, 23|
	22, 24|
	22, 25|
	22, 26|
	22, 27|
	22, 29|
	22, 61|
	25, 23|
	25, 24|
	25, 26|
	25, 27|
	25, 61|
	26, 24|
	26, 27|
	26, 67|
	26, 61|
	27, 61|
	28, 23|
	28, 24|
	28, 25|
	28, 26|
	28, 27|
	28, 29|
	28, 63|
	28, 78|
	28, 60|
	28, 61|
	29, 23|
	29, 24|
	29, 26|
	29, 27|
	29, 63|
	29, 78|
	29, 60|
	29, 61|
	52, 30|
	52, 36|
	52, 37|
	53, 30|
	53, 31|
	53, 36|
	53, 37|
	54, 30|
	54, 31|
	54, 32|
	54, 37|
	55, 30|
	55, 31|
	55, 32|
	55, 33|
	56, 31|
	56, 32|
	56, 33|
	56, 34|
	68, 32|
	68, 33|
	68, 34|
	68, 35|
	69, 33|
	69, 34|
	69, 35|
	38, 74|
	38, 66|
	38, 39|
	70, 74|
	70, 63|
	70, 66|
	70, 39|
	71, 74|
	71, 63|
	71, 64|
	71, 39|
	72, 74|
	72, 63|
	72, 64|
	72, 67|
	76, 63|
	76, 64|
	76, 67|
	76, 78|
	77, 64|
	77, 67|
	77, 78|
	77, 60|
	73, 67|
	73, 78|
	73, 60|
	73, 61|
	75, 8|
	75, 9|
	75, 10|
	75, 11|
	75, 12|
	75, 17|
	75, 50|
	75, 52|
	75, 30|
	75, 31|
	75, 32|
	75, 33|
	75, 34|
	75, 35|
	75, 53|
	75, 54|
	75, 55|
	75, 56|
	75, 68|
	75, 69|
	75, 36|
	75, 37|
	57, 8|
	57, 9|
	57, 10|
	57, 11|
	57, 12|
	57, 13|
	57, 17|
	57, 50|
	57, 52|
	57, 30|
	57, 31|
	57, 32|
	57, 33|
	57, 34|
	57, 35|
	57, 53|
	57, 54|
	57, 55|
	57, 56|
	57, 68|
	57, 69|
	57, 36|
	57, 37|
	49, 8|
	49, 9|
	49, 10|
	49, 11|
	49, 12|
	49, 13|
	49, 17|
	49, 50|
	49, 51|
	49, 30|
	49, 31|
	49, 32|
	49, 33|
	49, 34|
	49, 35|
	49, 53|
	49, 54|
	49, 55|
	49, 56|
	49, 68|
	49, 69|
	49, 37|
	40, 8|
	40, 9|
	40, 10|
	40, 11|
	40, 12|
	40, 13|
	40, 17|
	40, 50|
	40, 51|
	40, 30|
	40, 31|
	40, 32|
	40, 33|
	40, 34|
	40, 35|
	40, 54|
	40, 55|
	40, 56|
	40, 68|
	40, 69|
	42, 38|
	42, 74|
	42, 63|
	42, 64|
	42, 67|
	42, 78|
	42, 60|
	42, 61|
	42, 70|
	42, 71|
	42, 72|
	42, 76|
	42, 77|
	42, 73|
	42, 66|
	42, 39|
	42, 41|
	42, 44|
	42, 45|
	42, 48|
	43, 8|
	43, 38|
	43, 74|
	43, 63|
	43, 64|
	43, 67|
	43, 78|
	43, 60|
	43, 61|
	43, 70|
	43, 71|
	43, 72|
	43, 76|
	43, 77|
	43, 73|
	43, 66|
	43, 39|
	43, 44|
	43, 45|
	43, 48|
	43, 80|
	62, 38|
	62, 74|
	62, 63|
	62, 64|
	62, 67|
	62, 78|
	62, 60|
	62, 61|
	62, 70|
	62, 71|
	62, 72|
	62, 76|
	62, 77|
	62, 73|
	62, 66|
	62, 39|
	62, 45|
	62, 48|
	62, 80|
	62, 79|
	65, 38|
	65, 74|
	65, 63|
	65, 64|
	65, 67|
	65, 78|
	65, 60|
	65, 61|
	65, 70|
	65, 71|
	65, 72|
	65, 76|
	65, 77|
	65, 73|
	65, 66|
	65, 39|
	65, 48|
	65, 80|
	65, 79|
	46, 20|
	46, 21|
	46, 38|
	46, 74|
	46, 63|
	46, 64|
	46, 67|
	46, 78|
	46, 60|
	46, 61|
	46, 70|
	46, 71|
	46, 72|
	46, 76|
	46, 77|
	46, 73|
	46, 66|
	46, 39|
	46, 80|
	46, 79|
	47, 1|
	47, 2|
	47, 3|
	47, 4|
	47, 5|
	47, 6|
	47, 7|
	47, 8|
	47, 9|
	47, 17|
	47, 50|
	47, 51|
	47, 20|
	47, 21|
	47, 38|
	47, 74|
	47, 63|
	47, 64|
	47, 67|
	47, 78|
	47, 60|
	47, 61|
	47, 70|
	47, 71|
	47, 72|
	47, 76|
	47, 77|
	47, 73|
	47, 66|
	47, 39|
	47, 79|
	58, 1|
	58, 2|
	58, 3|
	58, 4|
	58, 5|
	58, 6|
	58, 7|
	58, 8|
	58, 9|
	58, 10|
	58, 11|
	58, 12|
	58, 13|
	58, 14|
	58, 15|
	58, 16|
	58, 17|
	58, 18|
	58, 19|
	58, 50|
	58, 51|
	58, 20|
	58, 21|
	58, 38|
	58, 74|
	58, 63|
	58, 64|
	58, 67|
	58, 78|
	58, 60|
	58, 61|
	58, 70|
	58, 71|
	58, 72|
	58, 76|
	58, 77|
	58, 73|
	58, 66|
	58, 39|
	59, 1|
	59, 2|
	59, 3|
	59, 4|
	59, 5|
	59, 6|
	59, 7|
	59, 8|
	59, 9|
	59, 10|
	59, 11|
	59, 12|
	59, 13|
	59, 14|
	59, 15|
	59, 16|
	59, 17|
	59, 18|
	59, 19|
	59, 50|
	59, 51|
	59, 20|
	59, 21|
	59, 38|
	59, 74|
	59, 63|
	59, 64|
	59, 67|
	59, 78|
	59, 60|
	59, 61|
	59, 70|
	59, 71|
	59, 72|
	59, 76|
	59, 77|
	59, 73|
	59, 66|
	59, 39|
	41, 38|
	41, 74|
	41, 63|
	41, 64|
	41, 67|
	41, 78|
	41, 60|
	41, 61|
	41, 70|
	41, 71|
	41, 72|
	41, 76|
	41, 77|
	41, 73|
	41, 66|
	41, 39|
	44, 38|
	44, 74|
	44, 63|
	44, 64|
	44, 67|
	44, 78|
	44, 60|
	44, 61|
	44, 70|
	44, 71|
	44, 72|
	44, 76|
	44, 77|
	44, 73|
	44, 66|
	44, 39|
	45, 38|
	45, 74|
	45, 63|
	45, 64|
	45, 67|
	45, 78|
	45, 60|
	45, 61|
	45, 70|
	45, 71|
	45, 72|
	45, 76|
	45, 77|
	45, 73|
	45, 66|
	45, 39|
	48, 38|
	48, 74|
	48, 63|
	48, 64|
	48, 67|
	48, 78|
	48, 60|
	48, 61|
	48, 70|
	48, 71|
	48, 72|
	48, 76|
	48, 77|
	48, 73|
	48, 66|
	48, 39|
	80, 38|
	80, 74|
	80, 63|
	80, 64|
	80, 67|
	80, 78|
	80, 60|
	80, 61|
	80, 70|
	80, 71|
	80, 72|
	80, 76|
	80, 77|
	80, 73|
	80, 66|
	80, 39|
	79, 38|
	79, 74|
	79, 63|
	79, 64|
	79, 67|
	79, 78|
	79, 60|
	79, 61|
	79, 70|
	79, 71|
	79, 72|
	79, 76|
	79, 77|
	79, 73|
	79, 66|
	79, 39|];
DisjunctiveConstraints =  [|1, 12, 52, 1|
	1, 13, 53, 1|
	2, 12, 52, 2|
	2, 13, 53, 2|
	2, 14, 54, 2|
	3, 8, 3, 48|
	3, 12, 52, 3|
	3, 13, 53, 3|
	3, 14, 54, 3|
	3, 15, 55, 3|
	4, 8, 4, 48|
	4, 12, 52, 4|
	4, 13, 53, 4|
	4, 14, 54, 4|
	4, 15, 55, 4|
	4, 16, 56, 4|
	4, 9, 4, 49|
	4, 17, 4, 57|
	5, 8, 5, 48|
	5, 12, 52, 5|
	5, 13, 53, 5|
	5, 14, 54, 5|
	5, 15, 55, 5|
	5, 16, 56, 5|
	5, 9, 5, 49|
	5, 17, 5, 57|
	6, 8, 6, 48|
	6, 12, 52, 6|
	6, 13, 53, 6|
	6, 14, 54, 6|
	6, 15, 55, 6|
	6, 16, 56, 6|
	6, 9, 6, 49|
	6, 17, 6, 57|
	7, 8, 7, 48|
	7, 12, 52, 7|
	7, 13, 53, 7|
	7, 14, 54, 7|
	7, 15, 55, 7|
	7, 16, 56, 7|
	7, 9, 7, 49|
	7, 17, 7, 57|
	18, 10, 18, 50|
	18, 11, 18, 51|
	18, 52, 18, 12|
	18, 53, 18, 13|
	19, 10, 19, 50|
	19, 11, 19, 51|
	19, 52, 19, 12|
	19, 53, 19, 13|
	19, 54, 19, 14|
	21, 12, 52, 21|
	23, 61, 23, 21|
	23, 72, 32, 23|
	23, 76, 36, 23|
	24, 63, 23, 24|
	24, 61, 24, 21|
	24, 72, 32, 24|
	24, 76, 36, 24|
	22, 24, 64, 22|
	22, 64, 24, 22|
	22, 76, 36, 22|
	25, 64, 24, 25|
	25, 76, 36, 25|
	26, 64, 24, 26|
	26, 76, 36, 26|
	26, 77, 37, 26|
	27, 64, 24, 27|
	27, 76, 36, 27|
	27, 77, 37, 27|
	28, 61, 28, 21|
	28, 72, 32, 28|
	29, 61, 29, 21|
	29, 72, 32, 29|
	30, 37, 30, 31|
	31, 30, 31, 32|
	32, 31, 32, 33|
	33, 32, 33, 34|
	34, 33, 34, 35|
	53, 52, 53, 54|
	54, 53, 54, 55|
	55, 54, 55, 56|
	56, 55, 56, 68|
	68, 56, 68, 69|
	37, 36, 37, 30|
	74, 39, 74, 63|
	63, 74, 63, 64|
	64, 63, 64, 67|
	67, 64, 67, 78|
	78, 67, 78, 60|
	60, 78, 60, 61|
	70, 38, 70, 71|
	71, 70, 71, 72|
	72, 71, 72, 76|
	76, 72, 76, 77|
	77, 76, 77, 73|
	39, 66, 39, 74|
	75, 52, 75, 12|
	75, 76, 75, 36|
	57, 52, 12, 57|
	57, 53, 57, 13|
	57, 77, 57, 37|
	57, 75, 57, 49|
	49, 53, 13, 49|
	49, 54, 49, 14|
	49, 36, 76, 49|
	49, 70, 49, 30|
	49, 57, 49, 40|
	40, 53, 13, 40|
	40, 54, 14, 40|
	40, 55, 40, 15|
	40, 37, 77, 40|
	40, 71, 40, 31|
	43, 9, 49, 43|
	43, 17, 57, 43|
	43, 50, 10, 43|
	43, 62, 43, 42|
	62, 1, 41, 62|
	62, 2, 42, 62|
	62, 3, 43, 62|
	62, 4, 44, 62|
	62, 5, 45, 62|
	62, 6, 46, 62|
	62, 7, 47, 62|
	62, 8, 48, 62|
	62, 10, 50, 62|
	62, 11, 51, 62|
	62, 12, 52, 62|
	62, 13, 53, 62|
	62, 9, 49, 62|
	62, 17, 57, 62|
	62, 50, 10, 62|
	62, 51, 11, 62|
	62, 20, 60, 62|
	62, 21, 61, 62|
	62, 65, 62, 43|
	65, 4, 44, 65|
	65, 5, 45, 65|
	65, 6, 46, 65|
	65, 7, 47, 65|
	65, 10, 50, 65|
	65, 11, 51, 65|
	65, 12, 52, 65|
	65, 13, 53, 65|
	65, 14, 54, 65|
	65, 15, 55, 65|
	65, 16, 56, 65|
	65, 18, 58, 65|
	65, 19, 59, 65|
	65, 46, 65, 62|
	46, 18, 58, 46|
	46, 19, 59, 46|
	46, 47, 46, 65|
	47, 60, 47, 20|
	47, 61, 47, 21|
	47, 58, 47, 46|
	47, 41, 47, 1|
	47, 44, 47, 4|
	58, 2, 58, 42|
	58, 3, 58, 43|
	58, 6, 58, 46|
	58, 7, 58, 47|
	58, 8, 58, 48|
	58, 10, 58, 50|
	58, 11, 58, 51|
	58, 9, 58, 49|
	58, 17, 58, 57|
	58, 59, 58, 47|
	58, 41, 58, 1|
	58, 44, 58, 4|
	58, 45, 58, 5|
	59, 10, 59, 50|
	59, 11, 59, 51|
	59, 18, 59, 58|
	59, 17, 59, 57|
	59, 52, 59, 12|
	59, 53, 59, 13|
	59, 54, 59, 14|
	59, 55, 59, 15|
	59, 56, 59, 16|
	44, 45, 44, 41|
	45, 48, 45, 44|
	48, 9, 49, 48|
	48, 17, 57, 48|
	48, 80, 48, 45|
	80, 1, 41, 80|
	80, 2, 42, 80|
	80, 3, 43, 80|
	80, 4, 44, 80|
	80, 5, 45, 80|
	80, 6, 46, 80|
	80, 8, 48, 80|
	80, 10, 50, 80|
	80, 11, 51, 80|
	80, 12, 52, 80|
	80, 9, 49, 80|
	80, 17, 57, 80|
	80, 50, 10, 80|
	80, 51, 11, 80|
	80, 20, 60, 80|
	80, 21, 61, 80|
	80, 79, 80, 48|
	79, 3, 43, 79|
	79, 4, 44, 79|
	79, 5, 45, 79|
	79, 6, 46, 79|
	79, 7, 47, 79|
	79, 10, 50, 79|
	79, 11, 51, 79|
	79, 12, 52, 79|
	79, 13, 53, 79|
	79, 14, 54, 79|
	79, 15, 55, 79|
	79, 16, 56, 79|
	79, 18, 58, 79|
	79, 19, 59, 79|];
SoftAtomicConstraints =  [|
18, 6|
19, 7|
10, 9|
11, 17|
15, 20|
16, 21|
28, 22|
29, 25|
23, 26|
24, 27|
37, 30|
30, 31|
31, 32|
32, 33|
33, 34|
34, 35|
36, 37|
66, 39|
49, 40|
44, 41|
43, 42|
62, 43|
45, 44|
48, 45|
47, 46|
58, 47|
80, 48|
57, 49|
12, 50|
13, 51|
52, 53|
53, 54|
54, 55|
55, 56|
75, 57|
59, 58|
78, 60|
60, 61|
65, 62|
74, 63|
63, 64|
46, 65|
64, 67|
56, 68|
68, 69|
38, 70|
70, 71|
71, 72|
77, 73|
39, 74|
72, 76|
76, 77|
67, 78|
79, 80|];
DirectSuccessors =  [];
